c colouring generated by benchmark framework
p edge 225 5180
v 1 17
v 2 11
v 3 12
v 4 3
v 5 4
v 6 1
v 7 16
v 8 5
v 9 6
v 10 20
v 11 15
v 12 7
v 13 18
v 14 14
v 15 2
v 16 3
v 17 7
v 18 4
v 19 6
v 20 20
v 21 8
v 22 19
v 23 10
v 24 15
v 25 12
v 26 18
v 27 0
v 28 16
v 29 21
v 30 9
v 31 1
v 32 20
v 33 2
v 34 12
v 35 15
v 36 10
v 37 21
v 38 17
v 39 7
v 40 6
v 41 16
v 42 13
v 43 8
v 44 4
v 45 3
v 46 16
v 47 13
v 48 11
v 49 4
v 50 9
v 51 18
v 52 0
v 53 19
v 54 2
v 55 14
v 56 1
v 57 15
v 58 7
v 59 12
v 60 20
v 61 21
v 62 6
v 63 19
v 64 18
v 65 3
v 66 16
v 67 2
v 68 9
v 69 17
v 70 4
v 71 13
v 72 11
v 73 10
v 74 8
v 75 7
v 76 15
v 77 2
v 78 0
v 79 17
v 80 7
v 81 13
v 82 14
v 83 1
v 84 21
v 85 16
v 86 8
v 87 5
v 88 3
v 89 20
v 90 6
v 91 14
v 92 4
v 93 8
v 94 13
v 95 11
v 96 15
v 97 10
v 98 7
v 99 3
v 100 19
v 101 6
v 102 21
v 103 2
v 104 16
v 105 1
v 106 13
v 107 16
v 108 14
v 109 9
v 110 8
v 111 5
v 112 6
v 113 12
v 114 0
v 115 11
v 116 2
v 117 3
v 118 15
v 119 17
v 120 21
v 121 11
v 122 9
v 123 1
v 124 21
v 125 19
v 126 17
v 127 20
v 128 2
v 129 8
v 130 10
v 131 0
v 132 14
v 133 13
v 134 5
v 135 4
v 136 12
v 137 18
v 138 5
v 139 8
v 140 0
v 141 7
v 142 3
v 143 14
v 144 4
v 145 15
v 146 19
v 147 9
v 148 6
v 149 2
v 150 11
v 151 8
v 152 19
v 153 3
v 154 2
v 155 10
v 156 6
v 157 4
v 158 18
v 159 9
v 160 0
v 161 11
v 162 1
v 163 20
v 164 15
v 165 14
v 166 4
v 167 12
v 168 20
v 169 0
v 170 18
v 171 2
v 172 1
v 173 16
v 174 10
v 175 21
v 176 14
v 177 6
v 178 17
v 179 19
v 180 8
v 181 7
v 182 3
v 183 9
v 184 1
v 185 21
v 186 0
v 187 13
v 188 8
v 189 18
v 190 2
v 191 10
v 192 12
v 193 5
v 194 6
v 195 17
v 196 19
v 197 5
v 198 10
v 199 20
v 200 16
v 201 14
v 202 7
v 203 0
v 204 12
v 205 13
v 206 4
v 207 2
v 208 1
v 209 18
v 210 15
v 211 18
v 212 14
v 213 16
v 214 7
v 215 6
v 216 3
v 217 8
v 218 4
v 219 5
v 220 9
v 221 17
v 222 20
v 223 12
v 224 13
v 225 19
